NAME          DCAP_2_4_3_300_SS104
ROWS
 N  OBJ
 L  CON1
 L  CON2
 L  CON3
 L  CON4
 L  CON5
 L  CON6
 L  CON7
 L  CON8
 L  CON9
 L  CON10
 L  CON11
 L  CON12
 E  CON13
 E  CON14
 E  CON15
 E  CON16
 E  CON17
 E  CON18
 E  CON19
 E  CON20
 E  CON21
 E  CON22
 E  CON23
 E  CON24
COLUMNS
    x[1,1]    OBJ       6.180167      CON1      1.000000    
    x[1,1]    CON7      -1.000000     CON8      -1.000000   
    x[1,1]    CON9      -1.000000   
    x[1,2]    OBJ       6.563535      CON2      1.000000    
    x[1,2]    CON8      -1.000000     CON9      -1.000000   
    x[1,3]    OBJ       7.443064      CON3      1.000000    
    x[1,3]    CON9      -1.000000   
    x[2,1]    OBJ       6.732585      CON4      1.000000    
    x[2,1]    CON10     -1.000000     CON11     -1.000000   
    x[2,1]    CON12     -1.000000   
    x[2,2]    OBJ       5.039546      CON5      1.000000    
    x[2,2]    CON11     -1.000000     CON12     -1.000000   
    x[2,3]    OBJ       6.054841      CON6      1.000000    
    x[2,3]    CON12     -1.000000   
    MARKER    'MARKER'                'INTORG'
    u[1,1]    OBJ       48.076654     CON1      -1.000000   
    u[1,2]    OBJ       20.066487     CON2      -1.000000   
    u[1,3]    OBJ       32.230043     CON3      -1.000000   
    u[2,1]    OBJ       49.996186     CON4      -1.000000   
    u[2,2]    OBJ       49.466655     CON5      -1.000000   
    u[2,3]    OBJ       27.484319     CON6      -1.000000   
    y[1,1,1]  OBJ       5.382042      CON7      0.638603    
    y[1,1,1]  CON13     1.000000    
    y[1,1,2]  OBJ       6.721080      CON8      0.828436    
    y[1,1,2]  CON14     1.000000    
    y[1,1,3]  OBJ       5.132133      CON9      1.410815    
    y[1,1,3]  CON15     1.000000    
    y[1,2,1]  OBJ       6.572406      CON7      1.078652    
    y[1,2,1]  CON16     1.000000    
    y[1,2,2]  OBJ       6.064991      CON8      0.918205    
    y[1,2,2]  CON17     1.000000    
    y[1,2,3]  OBJ       5.502677      CON9      0.923073    
    y[1,2,3]  CON18     1.000000    
    y[1,3,1]  OBJ       8.025084      CON7      1.078379    
    y[1,3,1]  CON19     1.000000    
    y[1,3,2]  OBJ       9.326942      CON8      1.229201    
    y[1,3,2]  CON20     1.000000    
    y[1,3,3]  OBJ       5.875932      CON9      0.868920    
    y[1,3,3]  CON21     1.000000    
    y[1,4,1]  OBJ       7.936286      CON7      1.497587    
    y[1,4,1]  CON22     1.000000    
    y[1,4,2]  OBJ       7.747114      CON8      0.775323    
    y[1,4,2]  CON23     1.000000    
    y[1,4,3]  OBJ       5.560271      CON9      1.257106    
    y[1,4,3]  CON24     1.000000    
    y[2,1,1]  OBJ       5.813371      CON10     0.638603    
    y[2,1,1]  CON13     1.000000    
    y[2,1,2]  OBJ       6.920793      CON11     0.828436    
    y[2,1,2]  CON14     1.000000    
    y[2,1,3]  OBJ       8.743254      CON12     1.410815    
    y[2,1,3]  CON15     1.000000    
    y[2,2,1]  OBJ       8.712231      CON10     1.078652    
    y[2,2,1]  CON16     1.000000    
    y[2,2,2]  OBJ       5.260681      CON11     0.918205    
    y[2,2,2]  CON17     1.000000    
    y[2,2,3]  OBJ       7.746037      CON12     0.923073    
    y[2,2,3]  CON18     1.000000    
    y[2,3,1]  OBJ       5.236618      CON10     1.078379    
    y[2,3,1]  CON19     1.000000    
    y[2,3,2]  OBJ       9.953827      CON11     1.229201    
    y[2,3,2]  CON20     1.000000    
    y[2,3,3]  OBJ       6.338618      CON12     0.868920    
    y[2,3,3]  CON21     1.000000    
    y[2,4,1]  OBJ       5.057705      CON10     1.497587    
    y[2,4,1]  CON22     1.000000    
    y[2,4,2]  OBJ       5.439443      CON11     0.775323    
    y[2,4,2]  CON23     1.000000    
    y[2,4,3]  OBJ       5.414929      CON12     1.257106    
    y[2,4,3]  CON24     1.000000    
    z[1,1]    OBJ       724.350611    CON13     1.000000    
    z[1,2]    OBJ       629.750467    CON14     1.000000    
    z[1,3]    OBJ       792.016072    CON15     1.000000    
    z[2,1]    OBJ       552.977236    CON16     1.000000    
    z[2,2]    OBJ       840.818266    CON17     1.000000    
    z[2,3]    OBJ       887.355545    CON18     1.000000    
    z[3,1]    OBJ       853.552482    CON19     1.000000    
    z[3,2]    OBJ       725.823991    CON20     1.000000    
    z[3,3]    OBJ       701.575378    CON21     1.000000    
    z[4,1]    OBJ       603.020597    CON22     1.000000    
    z[4,2]    OBJ       871.973271    CON23     1.000000    
    z[4,3]    OBJ       580.885879    CON24     1.000000    
    MARKER    'MARKER'                 'INTEND'
RHS
    RHS       CON1      -0.000000     CON2      -0.000000   
    RHS       CON3      -0.000000     CON4      -0.000000   
    RHS       CON5      -0.000000     CON6      -0.000000   
    RHS       CON7      -0.000000     CON8      -0.000000   
    RHS       CON9      -0.000000     CON10     -0.000000   
    RHS       CON11     -0.000000     CON12     -0.000000   
    RHS       CON13     1.000000      CON14     1.000000    
    RHS       CON15     1.000000      CON16     1.000000    
    RHS       CON17     1.000000      CON18     1.000000    
    RHS       CON19     1.000000      CON20     1.000000    
    RHS       CON21     1.000000      CON22     1.000000    
    RHS       CON23     1.000000      CON24     1.000000    
BOUNDS
 BV BOUND     u[1,1]  
 BV BOUND     u[1,2]  
 BV BOUND     u[1,3]  
 BV BOUND     u[2,1]  
 BV BOUND     u[2,2]  
 BV BOUND     u[2,3]  
 BV BOUND     y[1,1,1]
 BV BOUND     y[1,1,2]
 BV BOUND     y[1,1,3]
 BV BOUND     y[1,2,1]
 BV BOUND     y[1,2,2]
 BV BOUND     y[1,2,3]
 BV BOUND     y[1,3,1]
 BV BOUND     y[1,3,2]
 BV BOUND     y[1,3,3]
 BV BOUND     y[1,4,1]
 BV BOUND     y[1,4,2]
 BV BOUND     y[1,4,3]
 BV BOUND     y[2,1,1]
 BV BOUND     y[2,1,2]
 BV BOUND     y[2,1,3]
 BV BOUND     y[2,2,1]
 BV BOUND     y[2,2,2]
 BV BOUND     y[2,2,3]
 BV BOUND     y[2,3,1]
 BV BOUND     y[2,3,2]
 BV BOUND     y[2,3,3]
 BV BOUND     y[2,4,1]
 BV BOUND     y[2,4,2]
 BV BOUND     y[2,4,3]
 BV BOUND     z[1,1]  
 BV BOUND     z[1,2]  
 BV BOUND     z[1,3]  
 BV BOUND     z[2,1]  
 BV BOUND     z[2,2]  
 BV BOUND     z[2,3]  
 BV BOUND     z[3,1]  
 BV BOUND     z[3,2]  
 BV BOUND     z[3,3]  
 BV BOUND     z[4,1]  
 BV BOUND     z[4,2]  
 BV BOUND     z[4,3]  
ENDATA
